67 300 265 52 190 211 143 144 135 207 149 158 85 136 7 152 122 263 154 141 126 4 284 2 76 32 146 69 170 165 129 172 184 93 223 125 55 65 21 190 23 169 99 159 56 106 62 229 68 216 69 193 219 105 247 46 136 144 166 5 60 294 228 243 86 202 120 140 18 